biology/DIMACS/bio-celegans-dir.txt
p edge 454 4596
e 1 2
e 1 3
e 1 4
e 1 5
e 2 3
e 2 4
e 2 5
e 3 4
e 3 5
e 4 5
e 3 4
e 3 5
e 1 3
e 2 3
e 4 5
e 1 4
e 2 4
e 1 5
e 2 5
e 1 2
e 6 7
e 6 8
e 6 9
e 7 8
e 7 9
e 8 9
e 8 9
e 6 8
e 7 8
e 6 9
e 7 9
e 6 7
e 7 10
e 10 11
e 9 10
e 7 11
e 7 9
e 9 11
e 9 11
e 10 11
e 7 11
e 9 10
e 7 9
e 7 10
e 11 12
e 11 13
e 11 14
e 12 13
e 12 14
e 13 14
e 13 14
e 11 13
e 12 13
e 11 14
e 12 14
e 11 12
e 15 16
e 15 17
e 16 17
e 15 17
e 16 17
e 15 16
e 7 17
e 17 18
e 9 17
e 7 18
e 7 9
e 9 18
e 9 18
e 17 18
e 7 18
e 9 17
e 7 9
e 7 17
e 15 19
e 15 20
e 19 20
e 15 20
e 19 20
e 15 19
e 7 20
e 20 21
e 9 20
e 7 21
e 7 9
e 9 21
e 9 21
e 20 21
e 7 21
e 9 20
e 7 9
e 7 20
e 15 22
e 15 23
e 22 23
e 15 23
e 22 23
e 15 22
e 7 23
e 23 24
e 9 23
e 7 24
e 7 9
e 9 24
e 9 24
e 23 24
e 7 24
e 9 23
e 7 9
e 7 23
e 25 26
e 25 27
e 25 28
e 26 27
e 26 28
e 27 28
e 27 28
e 25 27
e 26 27
e 25 28
e 26 28
e 25 26
e 25 29
e 25 27
e 25 30
e 27 29
e 29 30
e 27 30
e 27 30
e 25 27
e 27 29
e 25 30
e 29 30
e 25 29
e 14 25
e 25 27
e 25 31
e 14 27
e 14 31
e 27 31
e 27 31
e 25 27
e 14 27
e 25 31
e 14 31
e 14 25
e 25 32
e 25 27
e 19 25
e 27 32
e 19 32
e 19 27
e 19 27
e 25 27
e 27 32
e 19 25
e 19 32
e 25 32
e 25 33
e 25 27
e 22 25
e 27 33
e 22 33
e 22 27
e 22 27
e 25 27
e 27 33
e 22 25
e 22 33
e 25 33
e 25 34
e 25 27
e 16 25
e 27 34
e 16 34
e 16 27
e 16 27
e 25 27
e 27 34
e 16 25
e 16 34
e 25 34
e 25 35
e 25 27
e 25 36
e 27 35
e 35 36
e 27 36
e 27 36
e 25 27
e 27 35
e 25 36
e 35 36
e 25 35
e 12 24
e 24 34
e 13 24
e 12 34
e 12 13
e 13 34
e 13 34
e 24 34
e 12 34
e 13 24
e 12 13
e 12 24
e 8 15
e 7 8
e 8 9
e 8 37
e 7 15
e 9 15
e 15 37
e 7 9
e 7 37
e 9 37
e 9 37
e 8 9
e 9 15
e 7 9
e 8 37
e 15 37
e 7 37
e 8 15
e 7 8
e 7 15
e 2 12
e 2 37
e 2 4
e 2 26
e 2 38
e 12 37
e 4 12
e 12 26
e 12 38
e 4 37
e 26 37
e 37 38
e 4 26
e 4 38
e 26 38
e 4 26
e 4 38
e 2 4
e 4 12
e 4 37
e 26 38
e 2 26
e 12 26
e 26 37
e 2 38
e 12 38
e 37 38
e 2 12
e 2 37
e 12 37
e 15 31
e 15 39
e 31 39
e 15 39
e 31 39
e 15 31
e 7 39
e 39 40
e 9 39
e 7 40
e 7 9
e 9 40
e 9 40
e 39 40
e 7 40
e 9 39
e 7 9
e 7 39
e 7 41
e 9 41
e 41 42
e 7 9
e 7 42
e 9 42
e 9 42
e 9 41
e 7 9
e 41 42
e 7 42
e 7 41
e 12 42
e 12 13
e 13 42
e 12 13
e 13 42
e 12 42
e 15 28
e 15 43
e 28 43
e 15 43
e 28 43
e 15 28
e 7 43
e 43 44
e 9 43
e 7 44
e 7 9
e 9 44
e 9 44
e 43 44
e 7 44
e 9 43
e 7 9
e 7 43
e 12 44
e 13 44
e 29 44
e 12 13
e 12 29
e 13 29
e 13 29
e 13 44
e 12 13
e 29 44
e 12 29
e 12 44
e 12 40
e 13 40
e 32 40
e 12 13
e 12 32
e 13 32
e 13 32
e 13 40
e 12 13
e 32 40
e 12 32
e 12 40
e 12 21
e 13 21
e 21 33
e 12 13
e 12 33
e 13 33
e 13 33
e 13 21
e 12 13
e 21 33
e 12 33
e 12 21
e 12 18
e 13 18
e 18 35
e 12 13
e 12 35
e 13 35
e 13 35
e 13 18
e 12 13
e 18 35
e 12 35
e 12 18
e 15 30
e 10 15
e 10 30
e 10 15
e 10 30
e 15 30
e 15 36
e 15 41
e 36 41
e 15 41
e 36 41
e 15 36
e 45 46
e 45 46
e 46 47
e 46 48
e 46 49
e 47 48
e 47 49
e 48 49
e 48 49
e 46 48
e 47 48
e 46 49
e 47 49
e 46 47
e 9 46
e 46 48
e 7 46
e 9 48
e 7 9
e 7 48
e 7 48
e 46 48
e 9 48
e 7 46
e 7 9
e 9 46
e 50 51
e 50 52
e 50 53
e 51 52
e 51 53
e 52 53
e 52 53
e 50 52
e 51 52
e 50 53
e 51 53
e 50 51
e 48 50
e 15 48
e 15 50
e 15 50
e 48 50
e 15 48
e 54 55
e 45 54
e 54 56
e 45 55
e 55 56
e 45 56
e 45 56
e 45 54
e 45 55
e 54 56
e 55 56
e 54 55
e 52 57
e 9 52
e 51 52
e 7 52
e 9 57
e 51 57
e 7 57
e 9 51
e 7 9
e 7 51
e 9 52
e 52 58
e 15 52
e 51 52
e 7 52
e 9 58
e 9 15
e 9 51
e 7 9
e 15 58
e 51 58
e 7 58
e 15 51
e 7 15
e 7 51
e 15 51
e 7 15
e 15 52
e 9 15
e 15 58
e 7 51
e 51 52
e 9 51
e 51 58
e 7 52
e 7 9
e 7 58
e 9 52
e 52 58
e 9 58
e 47 52
e 52 58
e 15 52
e 51 52
e 49 52
e 47 58
e 15 47
e 47 51
e 47 49
e 15 58
e 51 58
e 49 58
e 15 51
e 15 49
e 49 51
e 15 51
e 15 49
e 15 52
e 15 47
e 15 58
e 49 51
e 51 52
e 47 51
e 51 58
e 49 52
e 47 49
e 49 58
e 47 52
e 52 58
e 47 58
e 15 59
e 15 60
e 5 15
e 59 60
e 5 59
e 5 60
e 5 60
e 15 60
e 59 60
e 5 15
e 5 59
e 15 59
e 51 61
e 52 61
e 59 61
e 51 52
e 51 59
e 52 59
e 52 59
e 52 61
e 51 52
e 59 61
e 51 59
e 51 61
e 7 62
e 61 62
e 9 62
e 7 61
e 7 9
e 9 61
e 9 61
e 61 62
e 7 61
e 9 62
e 7 9
e 7 62
e 49 62
e 61 62
e 47 62
e 49 61
e 47 49
e 47 61
e 47 61
e 61 62
e 49 61
e 47 62
e 47 49
e 49 62
e 52 63
e 51 52
e 52 64
e 51 63
e 63 64
e 51 64
e 51 64
e 51 52
e 51 63
e 52 64
e 63 64
e 52 63
e 7 15
e 15 64
e 9 15
e 15 65
e 7 64
e 7 9
e 7 65
e 9 64
e 64 65
e 9 65
e 9 65
e 9 15
e 7 9
e 9 64
e 15 65
e 7 65
e 64 65
e 7 15
e 15 64
e 7 64
e 15 49
e 15 64
e 15 47
e 15 65
e 49 64
e 47 49
e 49 65
e 47 64
e 64 65
e 47 65
e 47 65
e 15 47
e 47 49
e 47 64
e 15 65
e 49 65
e 64 65
e 15 49
e 15 64
e 49 64
e 66 67
e 66 68
e 67 68
e 66 68
e 67 68
e 66 67
e 68 69
e 68 69
e 66 70
e 56 66
e 66 67
e 56 70
e 67 70
e 56 67
e 56 67
e 56 66
e 56 70
e 66 67
e 67 70
e 66 70
e 15 69
e 69 71
e 69 72
e 15 71
e 15 72
e 71 72
e 71 72
e 69 71
e 15 71
e 69 72
e 15 72
e 15 69
e 15 73
e 9 73
e 73 74
e 7 73
e 9 15
e 15 74
e 7 15
e 9 74
e 7 9
e 7 74
e 7 74
e 73 74
e 15 74
e 9 74
e 7 73
e 7 15
e 7 9
e 15 73
e 9 73
e 9 15
e 52 74
e 52 75
e 51 52
e 74 75
e 51 74
e 51 75
e 51 75
e 52 75
e 74 75
e 51 52
e 51 74
e 52 74
e 25 76
e 15 76
e 76 77
e 27 76
e 15 25
e 25 77
e 25 27
e 15 77
e 15 27
e 27 77
e 27 77
e 76 77
e 25 77
e 15 77
e 27 76
e 25 27
e 15 27
e 25 76
e 15 76
e 15 25
e 15 77
e 73 77
e 15 73
e 73 77
e 15 73
e 15 77
e 75 78
e 55 75
e 55 78
e 55 78
e 75 78
e 55 75
e 15 79
e 15 80
e 5 15
e 79 80
e 5 79
e 5 80
e 15 49
e 15 81
e 15 47
e 15 82
e 49 81
e 47 49
e 49 82
e 47 81
e 81 82
e 47 82
e 2 12
e 2 82
e 2 4
e 2 13
e 2 38
e 12 82
e 4 12
e 12 13
e 12 38
e 4 82
e 13 82
e 38 82
e 4 13
e 4 38
e 13 38
e 4 13
e 4 38
e 2 4
e 4 12
e 4 82
e 13 38
e 2 13
e 12 13
e 13 82
e 2 38
e 12 38
e 38 82
e 2 12
e 2 82
e 12 82
e 12 83
e 12 84
e 12 85
e 83 84
e 83 85
e 84 85
e 5 86
e 85 86
e 12 86
e 86 87
e 65 86
e 5 85
e 5 12
e 5 87
e 5 65
e 12 85
e 85 87
e 65 85
e 12 87
e 12 65
e 65 87
e 25 65
e 25 27
e 25 72
e 27 65
e 65 72
e 27 72
e 15 72
e 15 88
e 72 88
e 15 88
e 72 88
e 15 72
e 7 88
e 9 88
e 88 89
e 7 9
e 7 89
e 9 89
e 9 89
e 9 88
e 7 9
e 88 89
e 7 89
e 7 88
e 13 15
e 15 89
e 12 15
e 15 90
e 13 89
e 12 13
e 13 90
e 12 89
e 89 90
e 12 90
e 15 90
e 90 91
e 15 91
e 15 91
e 15 90
e 90 91
e 15 91
e 15 92
e 91 92
e 15 92
e 91 92
e 15 91
e 52 93
e 52 56
e 52 83
e 56 93
e 83 93
e 56 83
e 7 92
e 7 52
e 7 56
e 7 9
e 52 92
e 56 92
e 9 92
e 52 56
e 9 52
e 9 56
e 47 94
e 94 95
e 49 94
e 47 95
e 47 49
e 49 95
e 49 95
e 94 95
e 47 95
e 49 94
e 47 49
e 47 94
e 2 95
e 95 96
e 95 97
e 2 96
e 2 97
e 96 97
e 96 97
e 95 96
e 2 96
e 95 97
e 2 97
e 2 95
e 15 42
e 13 15
e 15 94
e 12 15
e 13 42
e 42 94
e 12 42
e 13 94
e 12 13
e 12 94
e 12 94
e 15 94
e 42 94
e 13 94
e 12 15
e 12 42
e 12 13
e 15 42
e 13 15
e 13 42
e 2 96
e 96 98
e 96 97
e 2 98
e 2 97
e 97 98
e 97 98
e 96 98
e 2 98
e 96 97
e 2 97
e 2 96
e 2 98
e 97 98
e 56 98
e 98 99
e 5 98
e 2 97
e 2 56
e 2 99
e 2 5
e 56 97
e 97 99
e 5 97
e 56 99
e 5 56
e 5 99
e 56 97
e 97 99
e 5 97
e 97 98
e 2 97
e 56 99
e 5 56
e 56 98
e 2 56
e 5 99
e 98 99
e 2 99
e 5 98
e 2 5
e 2 98
e 99 100
e 100 101
e 38 100
e 99 101
e 38 99
e 38 101
e 38 101
e 100 101
e 99 101
e 38 100
e 38 99
e 99 100
e 38 102
e 103 104
e 15 103
e 15 104
e 15 103
e 15 104
e 103 104
e 13 78
e 12 13
e 13 88
e 12 78
e 78 88
e 12 88
e 78 92
e 65 92
e 65 78
e 65 78
e 78 92
e 65 92
e 5 105
e 105 106
e 105 107
e 5 106
e 5 107
e 106 107
e 106 107
e 105 106
e 5 106
e 105 107
e 5 107
e 5 105
e 15 108
e 15 58
e 15 105
e 58 108
e 105 108
e 58 105
e 58 105
e 15 58
e 58 108
e 15 105
e 105 108
e 15 108
e 106 109
e 106 108
e 5 106
e 108 109
e 5 109
e 5 108
e 5 108
e 106 108
e 108 109
e 5 106
e 5 109
e 106 109
e 15 108
e 15 109
e 15 110
e 108 109
e 108 110
e 109 110
e 2 108
e 2 97
e 2 4
e 97 108
e 4 108
e 4 97
e 4 97
e 2 97
e 97 108
e 2 4
e 4 108
e 2 108
e 5 108
e 108 111
e 108 109
e 5 111
e 5 109
e 109 111
e 109 111
e 108 111
e 5 111
e 108 109
e 5 109
e 5 108
e 2 97
e 97 97
e 2 97
e 2 97
e 2 2
e 2 97
e 2 51
e 2 112
e 2 113
e 2 97
e 2 5
e 51 112
e 51 113
e 51 97
e 5 51
e 112 113
e 97 112
e 5 112
e 97 113
e 5 113
e 5 97
e 97 113
e 5 113
e 2 113
e 51 113
e 112 113
e 5 97
e 2 97
e 51 97
e 97 112
e 2 5
e 5 51
e 5 112
e 2 51
e 2 112
e 51 112
e 47 113
e 113 114
e 49 113
e 47 114
e 47 49
e 49 114
e 49 114
e 113 114
e 47 114
e 49 113
e 47 49
e 47 113
e 115 116
e 112 115
e 38 115
e 112 116
e 38 116
e 38 112
e 2 114
e 51 114
e 97 114
e 5 114
e 114 117
e 2 51
e 2 97
e 2 5
e 2 117
e 51 97
e 5 51
e 51 117
e 5 97
e 97 117
e 5 117
e 5 97
e 97 117
e 97 114
e 2 97
e 51 97
e 5 117
e 5 114
e 2 5
e 5 51
e 114 117
e 2 117
e 51 117
e 2 114
e 51 114
e 2 51
e 2 118
e 2 115
e 2 4
e 115 118
e 4 118
e 4 115
e 4 115
e 2 115
e 115 118
e 2 4
e 4 118
e 2 118
e 15 119
e 15 58
e 15 82
e 58 119
e 82 119
e 58 82
e 2 4
e 4 97
e 2 97
e 4 97
e 2 97
e 2 4
e 4 87
e 4 97
e 4 86
e 87 97
e 86 87
e 86 97
e 86 97
e 4 97
e 87 97
e 4 86
e 86 87
e 4 87
e 87 97
e 2 97
e 86 97
e 2 87
e 86 87
e 2 86
e 2 86
e 2 97
e 2 87
e 86 97
e 86 87
e 87 97
e 4 15
e 4 120
e 4 58
e 15 120
e 15 58
e 58 120
e 15 121
e 4 15
e 2 15
e 4 121
e 2 121
e 2 4
e 122 123
e 122 124
e 123 124
e 52 123
e 51 52
e 52 125
e 51 123
e 123 125
e 51 125
e 51 125
e 51 52
e 51 123
e 52 125
e 123 125
e 52 123
e 7 125
e 15 125
e 51 125
e 9 125
e 7 15
e 7 51
e 7 9
e 15 51
e 9 15
e 9 51
e 15 51
e 9 15
e 15 125
e 7 15
e 9 51
e 51 125
e 7 51
e 9 125
e 7 9
e 7 125
e 15 122
e 15 123
e 15 124
e 122 123
e 122 124
e 123 124
e 123 124
e 15 123
e 122 123
e 15 124
e 122 124
e 15 122
e 125 126
e 15 125
e 15 126
e 15 126
e 125 126
e 15 125
e 9 126
e 126 127
e 7 126
e 9 127
e 7 9
e 7 127
e 7 127
e 126 127
e 9 127
e 7 126
e 7 9
e 9 126
e 47 126
e 126 127
e 49 126
e 47 127
e 47 49
e 49 127
e 49 127
e 126 127
e 47 127
e 49 126
e 47 49
e 47 126
e 66 128
e 15 66
e 66 129
e 15 128
e 128 129
e 15 129
e 15 130
e 15 131
e 15 58
e 130 131
e 58 130
e 58 131
e 52 131
e 51 52
e 52 89
e 51 131
e 89 131
e 51 89
e 51 89
e 51 52
e 51 131
e 52 89
e 89 131
e 52 131
e 2 131
e 2 57
e 2 4
e 2 130
e 2 51
e 2 38
e 57 131
e 4 131
e 130 131
e 51 131
e 38 131
e 4 57
e 57 130
e 51 57
e 38 57
e 4 130
e 4 51
e 4 38
e 51 130
e 38 130
e 38 51
e 4 130
e 4 51
e 4 38
e 2 4
e 4 131
e 4 57
e 51 130
e 38 130
e 2 130
e 130 131
e 57 130
e 38 51
e 2 51
e 51 131
e 51 57
e 2 38
e 38 131
e 38 57
e 2 131
e 2 57
e 57 131
e 47 132
e 132 133
e 49 132
e 5 132
e 47 133
e 47 49
e 5 47
e 49 133
e 5 133
e 5 49
e 49 133
e 5 133
e 132 133
e 47 133
e 5 49
e 49 132
e 47 49
e 5 132
e 5 47
e 47 132
e 47 133
e 133 134
e 49 133
e 47 134
e 47 49
e 49 134
e 49 134
e 133 134
e 47 134
e 49 133
e 47 49
e 47 133
e 9 133
e 133 134
e 7 133
e 9 134
e 7 9
e 7 134
e 7 134
e 133 134
e 9 134
e 7 133
e 7 9
e 9 133
e 2 131
e 2 132
e 2 97
e 131 132
e 97 131
e 97 132
e 97 132
e 2 132
e 131 132
e 2 97
e 97 131
e 2 131
e 15 135
e 15 136
e 5 15
e 135 136
e 5 135
e 5 136
e 5 136
e 15 136
e 135 136
e 5 15
e 5 135
e 15 135
e 2 134
e 2 97
e 2 135
e 97 134
e 134 135
e 97 135
e 97 135
e 2 97
e 97 134
e 2 135
e 134 135
e 2 134
e 81 137
e 137 138
e 81 138
e 81 138
e 81 137
e 137 138
e 15 139
e 138 139
e 114 139
e 60 139
e 15 138
e 15 114
e 15 60
e 114 138
e 60 138
e 60 114
e 60 114
e 114 139
e 15 114
e 114 138
e 60 139
e 15 60
e 60 138
e 15 139
e 138 139
e 15 138
e 2 140
e 2 5
e 5 140
e 52 141
e 141 142
e 51 141
e 52 142
e 51 52
e 51 142
e 51 142
e 141 142
e 52 142
e 51 141
e 51 52
e 52 141
e 15 143
e 15 144
e 15 145
e 143 144
e 143 145
e 144 145
e 15 145
e 15 144
e 15 146
e 144 145
e 145 146
e 144 146
e 15 140
e 4 140
e 4 15
e 2 147
e 2 97
e 2 148
e 97 147
e 147 148
e 97 148
e 147 149
e 15 147
e 147 150
e 147 151
e 15 149
e 149 150
e 149 151
e 15 150
e 15 151
e 150 151
e 2 150
e 2 97
e 2 152
e 97 150
e 150 152
e 97 152
e 15 153
e 15 154
e 153 154
e 15 155
e 15 156
e 15 157
e 155 156
e 155 157
e 156 157
e 15 158
e 15 155
e 15 159
e 155 158
e 158 159
e 155 159
e 57 160
e 51 57
e 57 161
e 55 57
e 51 160
e 160 161
e 55 160
e 51 161
e 51 55
e 55 161
e 162 163
e 56 162
e 15 162
e 56 163
e 15 163
e 15 56
e 60 163
e 163 164
e 163 165
e 60 164
e 60 165
e 164 165
e 161 166
e 166 167
e 38 166
e 161 167
e 38 161
e 38 167
e 162 167
e 162 167
e 58 160
e 58 161
e 55 58
e 160 161
e 55 160
e 55 161
e 160 168
e 160 168
e 7 168
e 7 56
e 7 9
e 7 70
e 56 168
e 9 168
e 70 168
e 9 56
e 56 70
e 9 70
e 9 56
e 56 70
e 7 56
e 56 168
e 9 70
e 7 9
e 9 168
e 7 70
e 70 168
e 7 168
e 51 70
e 51 52
e 51 169
e 52 70
e 70 169
e 52 169
e 52 169
e 51 52
e 52 70
e 51 169
e 70 169
e 51 70
e 170 171
e 170 172
e 38 170
e 171 172
e 38 171
e 38 172
e 47 173
e 66 173
e 173 174
e 15 173
e 49 173
e 47 66
e 47 174
e 15 47
e 47 49
e 66 174
e 15 66
e 49 66
e 15 174
e 49 174
e 15 49
e 47 175
e 66 175
e 175 176
e 15 175
e 49 175
e 47 66
e 47 176
e 15 47
e 47 49
e 66 176
e 15 66
e 49 66
e 15 176
e 49 176
e 15 49
e 47 177
e 66 177
e 177 178
e 15 177
e 49 177
e 47 66
e 47 178
e 15 47
e 47 49
e 66 178
e 15 66
e 49 66
e 15 178
e 49 178
e 15 49
e 174 179
e 174 175
e 174 180
e 175 179
e 179 180
e 175 180
e 176 179
e 176 177
e 176 180
e 177 179
e 179 180
e 177 180
e 178 179
e 178 181
e 178 180
e 179 181
e 179 180
e 180 181
e 160 170
e 55 160
e 55 170
e 55 170
e 160 170
e 55 160
e 172 173
e 56 172
e 56 173
e 2 182
e 2 97
e 2 147
e 97 182
e 147 182
e 97 147
e 97 147
e 2 97
e 97 182
e 2 147
e 147 182
e 2 182
e 97 148
e 2 97
e 97 147
e 2 148
e 147 148
e 2 147
e 15 56
e 56 104
e 15 104
e 56 104
e 15 104
e 15 56
e 103 104
e 104 104
e 103 104
e 103 104
e 103 104
e 104 104
e 2 56
e 2 15
e 2 58
e 2 97
e 2 183
e 2 5
e 15 56
e 56 58
e 56 97
e 56 183
e 5 56
e 15 58
e 15 97
e 15 183
e 5 15
e 58 97
e 58 183
e 5 58
e 97 183
e 5 97
e 5 183
e 123 183
e 123 184
e 5 123
e 183 184
e 5 183
e 5 184
e 5 184
e 123 184
e 183 184
e 5 123
e 5 183
e 123 183
e 2 131
e 2 184
e 2 4
e 2 185
e 2 38
e 131 184
e 4 131
e 131 185
e 38 131
e 4 184
e 184 185
e 38 184
e 4 185
e 4 38
e 38 185
e 4 185
e 4 38
e 2 4
e 4 131
e 4 184
e 38 185
e 2 185
e 131 185
e 184 185
e 2 38
e 38 131
e 38 184
e 2 131
e 2 184
e 131 184
e 122 185
e 72 185
e 72 122
e 72 122
e 122 185
e 72 185
e 15 186
e 15 58
e 15 55
e 15 187
e 58 186
e 55 186
e 186 187
e 55 58
e 58 187
e 55 187
e 15 188
e 15 58
e 15 189
e 58 188
e 188 189
e 58 189
e 15 190
e 15 58
e 15 191
e 15 187
e 58 190
e 190 191
e 187 190
e 58 191
e 58 187
e 187 191
e 15 190
e 15 58
e 15 55
e 15 191
e 58 190
e 55 190
e 190 191
e 55 58
e 58 191
e 55 191
e 2 192
e 2 97
e 2 182
e 97 192
e 182 192
e 97 182
e 15 192
e 15 58
e 15 193
e 58 192
e 192 193
e 58 193
e 5 193
e 5 106
e 5 189
e 106 193
e 189 193
e 106 189
e 2 194
e 194 195
e 97 194
e 2 195
e 2 97
e 97 195
e 15 196
e 15 58
e 15 197
e 58 196
e 196 197
e 58 197
e 2 198
e 2 97
e 2 199
e 97 198
e 198 199
e 97 199
e 97 199
e 2 97
e 97 198
e 2 199
e 198 199
e 2 198
e 2 200
e 2 97
e 2 198
e 97 200
e 198 200
e 97 198
e 97 198
e 2 97
e 97 200
e 2 198
e 198 200
e 2 200
e 97 152
e 2 97
e 97 150
e 2 152
e 150 152
e 2 150
e 2 201
e 2 97
e 2 150
e 97 201
e 150 201
e 97 150
e 2 150
e 2 97
e 2 150
e 97 150
e 150 150
e 97 150
e 15 201
e 15 58
e 15 202
e 58 201
e 201 202
e 58 202
e 2 203
e 2 97
e 2 202
e 97 203
e 202 203
e 97 202
e 15 204
e 15 58
e 15 203
e 58 204
e 203 204
e 58 203
e 2 205
e 2 97
e 2 206
e 97 205
e 205 206
e 97 206
e 97 206
e 2 97
e 97 205
e 2 206
e 205 206
e 2 205
e 2 207
e 2 97
e 2 205
e 97 207
e 205 207
e 97 205
e 97 205
e 2 97
e 97 207
e 2 205
e 205 207
e 2 207
e 5 208
e 208 209
e 208 210
e 5 209
e 5 210
e 209 210
e 209 210
e 208 209
e 5 209
e 208 210
e 5 210
e 5 208
e 211 212
e 211 213
e 55 211
e 212 213
e 55 212
e 55 213
e 148 214
e 147 148
e 148 215
e 147 214
e 214 215
e 147 215
e 216 217
e 214 216
e 216 218
e 214 217
e 217 218
e 214 218
e 219 220
e 219 221
e 214 219
e 220 221
e 214 220
e 214 221
e 220 221
e 221 222
e 214 221
e 220 222
e 214 220
e 214 222
e 220 222
e 222 223
e 214 222
e 220 223
e 214 220
e 214 223
e 220 223
e 223 224
e 214 223
e 220 224
e 214 220
e 214 224
e 220 224
e 224 225
e 214 224
e 220 225
e 214 220
e 214 225
e 226 227
e 226 228
e 86 226
e 227 228
e 86 227
e 86 228
e 226 228
e 228 229
e 86 228
e 226 229
e 86 226
e 86 229
e 226 229
e 229 230
e 86 229
e 226 230
e 86 226
e 86 230
e 226 230
e 230 231
e 86 230
e 226 231
e 86 226
e 86 231
e 226 231
e 219 231
e 86 231
e 219 226
e 86 226
e 86 219
e 219 226
e 219 219
e 86 219
e 219 226
e 86 226
e 86 219
e 215 232
e 232 233
e 232 234
e 215 233
e 215 234
e 233 234
e 232 234
e 232 235
e 227 232
e 234 235
e 227 234
e 227 235
e 217 225
e 225 236
e 214 225
e 217 236
e 214 217
e 214 236
e 217 236
e 216 236
e 214 236
e 216 217
e 214 217
e 214 216
e 2 237
e 2 97
e 2 238
e 97 237
e 237 238
e 97 238
e 97 238
e 2 97
e 97 237
e 2 238
e 237 238
e 2 237
e 15 239
e 239 240
e 15 240
e 15 240
e 15 239
e 239 240
e 240 241
e 240 241
e 47 241
e 241 242
e 49 241
e 47 242
e 47 49
e 49 242
e 2 243
e 2 97
e 2 244
e 97 243
e 243 244
e 97 244
e 2 244
e 2 97
e 2 237
e 97 244
e 237 244
e 97 237
e 97 237
e 2 97
e 97 244
e 2 237
e 237 244
e 2 244
e 2 245
e 2 97
e 2 246
e 97 245
e 245 246
e 97 246
e 97 246
e 2 97
e 97 245
e 2 246
e 245 246
e 2 245
e 2 202
e 2 97
e 2 245
e 97 202
e 202 245
e 97 245
e 15 246
e 15 202
e 15 38
e 202 246
e 38 246
e 38 202
e 139 202
e 113 139
e 139 244
e 113 202
e 202 244
e 113 244
e 113 244
e 113 139
e 113 202
e 139 244
e 202 244
e 139 202
e 247 248
e 15 247
e 15 248
e 15 248
e 247 248
e 15 247
e 47 248
e 49 248
e 248 249
e 47 49
e 47 249
e 49 249
e 49 249
e 49 248
e 47 49
e 248 249
e 47 249
e 47 248
e 15 250
e 250 251
e 250 252
e 5 250
e 15 251
e 15 252
e 5 15
e 251 252
e 5 251
e 5 252
e 5 252
e 250 252
e 15 252
e 251 252
e 5 250
e 5 15
e 5 251
e 15 250
e 250 251
e 15 251
e 2 249
e 2 253
e 2 97
e 249 253
e 97 249
e 97 253
e 97 253
e 2 253
e 249 253
e 2 97
e 97 249
e 2 249
e 251 253
e 253 254
e 5 253
e 251 254
e 5 251
e 5 254
e 247 252
e 5 252
e 5 247
e 5 247
e 247 252
e 5 252
e 160 254
e 5 254
e 5 160
e 255 256
e 52 255
e 255 257
e 52 256
e 256 257
e 52 257
e 52 257
e 52 255
e 52 256
e 255 257
e 256 257
e 255 256
e 66 258
e 66 259
e 66 260
e 258 259
e 258 260
e 259 260
e 7 250
e 250 261
e 9 250
e 7 261
e 7 9
e 9 261
e 9 261
e 250 261
e 7 261
e 9 250
e 7 9
e 7 250
e 7 261
e 255 261
e 9 261
e 7 255
e 7 9
e 9 255
e 9 255
e 255 261
e 7 255
e 9 261
e 7 9
e 7 261
e 7 15
e 15 81
e 9 15
e 15 82
e 7 81
e 7 9
e 7 82
e 9 81
e 81 82
e 9 82
e 9 82
e 9 15
e 7 9
e 9 81
e 15 82
e 7 82
e 81 82
e 7 15
e 15 81
e 7 81
e 12 87
e 12 82
e 12 86
e 12 13
e 5 12
e 82 87
e 86 87
e 13 87
e 5 87
e 82 86
e 13 82
e 5 82
e 13 86
e 5 86
e 5 13
e 13 86
e 5 86
e 12 86
e 86 87
e 82 86
e 5 13
e 12 13
e 13 87
e 13 82
e 5 12
e 5 87
e 5 82
e 12 87
e 12 82
e 82 87
e 7 262
e 7 9
e 7 81
e 9 262
e 81 262
e 9 81
e 9 81
e 7 9
e 9 262
e 7 81
e 81 262
e 7 262
e 164 263
e 164 264
e 164 265
e 263 264
e 263 265
e 264 265
e 264 265
e 164 264
e 263 264
e 164 265
e 263 265
e 164 263
e 2 264
e 2 166
e 2 4
e 166 264
e 4 264
e 4 166
e 264 266
e 264 266
e 250 267
e 164 250
e 250 263
e 164 267
e 263 267
e 164 263
e 164 263
e 164 250
e 164 267
e 250 263
e 263 267
e 250 267
e 265 266
e 265 266
e 164 267
e 164 250
e 164 265
e 250 267
e 265 267
e 250 265
e 250 265
e 164 250
e 250 267
e 164 265
e 265 267
e 164 267
e 2 268
e 51 268
e 268 269
e 97 268
e 5 268
e 2 51
e 2 269
e 2 97
e 2 5
e 51 269
e 51 97
e 5 51
e 97 269
e 5 269
e 5 97
e 97 269
e 5 269
e 268 269
e 2 269
e 51 269
e 5 97
e 97 268
e 2 97
e 51 97
e 5 268
e 2 5
e 5 51
e 2 268
e 51 268
e 2 51
e 2 269
e 51 269
e 97 269
e 269 270
e 5 269
e 2 51
e 2 97
e 2 270
e 2 5
e 51 97
e 51 270
e 5 51
e 97 270
e 5 97
e 5 270
e 97 270
e 5 97
e 97 269
e 2 97
e 51 97
e 5 270
e 269 270
e 2 270
e 51 270
e 5 269
e 2 5
e 5 51
e 2 269
e 51 269
e 2 51
e 271 272
e 271 272
e 7 15
e 15 273
e 9 15
e 15 271
e 7 273
e 7 9
e 7 271
e 9 273
e 271 273
e 9 271
e 9 271
e 9 15
e 7 9
e 9 273
e 15 271
e 7 271
e 271 273
e 7 15
e 15 273
e 7 273
e 274 275
e 235 274
e 273 274
e 38 274
e 235 275
e 273 275
e 38 275
e 235 273
e 38 235
e 38 273
e 235 273
e 38 235
e 235 274
e 235 275
e 38 273
e 273 274
e 273 275
e 38 274
e 38 275
e 274 275
e 15 276
e 276 277
e 15 277
e 276 277
e 15 277
e 15 276
e 49 277
e 56 277
e 266 277
e 47 277
e 49 56
e 49 266
e 47 49
e 56 266
e 47 56
e 47 266
e 56 266
e 47 56
e 56 277
e 49 56
e 47 266
e 266 277
e 49 266
e 47 277
e 47 49
e 49 277
e 49 278
e 276 278
e 47 278
e 49 276
e 47 49
e 47 276
e 47 276
e 276 278
e 49 276
e 47 278
e 47 49
e 49 278
e 164 279
e 164 279
e 164 275
e 164 273
e 38 164
e 273 275
e 38 275
e 38 273
e 273 280
e 235 273
e 273 281
e 235 280
e 280 281
e 235 281
e 281 282
e 15 283
e 283 284
e 5 283
e 15 284
e 5 15
e 5 284
e 278 283
e 278 283
e 15 285
e 285 286
e 5 285
e 15 286
e 5 15
e 5 286
e 38 273
e 164 273
e 273 275
e 38 164
e 38 275
e 164 275
e 273 279
e 279 285
e 235 279
e 273 285
e 235 273
e 235 285
e 235 285
e 279 285
e 273 285
e 235 279
e 235 273
e 273 279
e 2 287
e 2 288
e 2 97
e 287 288
e 97 287
e 97 288
e 97 288
e 2 288
e 287 288
e 2 97
e 97 287
e 2 287
e 273 288
e 164 288
e 288 289
e 164 273
e 273 289
e 164 289
e 164 289
e 164 288
e 164 273
e 288 289
e 273 289
e 273 288
e 273 289
e 273 289
e 7 290
e 7 9
e 7 78
e 9 290
e 78 290
e 9 78
e 9 78
e 7 9
e 9 290
e 7 78
e 78 290
e 7 290
e 78 142
e 138 142
e 55 142
e 78 138
e 55 78
e 55 138
e 55 138
e 138 142
e 78 138
e 55 142
e 55 78
e 78 142
e 47 291
e 291 292
e 49 291
e 47 292
e 47 49
e 49 292
e 226 293
e 15 226
e 15 293
e 15 293
e 226 293
e 15 226
e 291 293
e 291 293
e 99 294
e 294 295
e 99 295
e 294 295
e 99 295
e 99 294
e 144 148
e 148 296
e 38 148
e 144 296
e 38 144
e 38 296
e 7 279
e 279 297
e 9 279
e 7 297
e 7 9
e 9 297
e 9 297
e 279 297
e 7 297
e 9 279
e 7 9
e 7 279
e 60 142
e 55 142
e 55 60
e 2 267
e 2 97
e 2 298
e 97 267
e 267 298
e 97 298
e 97 298
e 2 97
e 97 267
e 2 298
e 267 298
e 2 267
e 164 298
e 298 299
e 164 299
e 164 299
e 164 298
e 298 299
e 164 299
e 164 299
e 15 300
e 251 300
e 15 251
e 15 251
e 15 300
e 251 300
e 97 251
e 2 97
e 55 97
e 2 251
e 55 251
e 2 55
e 2 55
e 2 97
e 2 251
e 55 97
e 55 251
e 97 251
e 7 164
e 5 164
e 164 301
e 9 164
e 5 7
e 7 301
e 7 9
e 5 301
e 5 9
e 9 301
e 9 301
e 164 301
e 7 301
e 5 301
e 9 164
e 7 9
e 5 9
e 7 164
e 5 164
e 5 7
e 2 302
e 2 97
e 2 278
e 97 302
e 278 302
e 97 278
e 97 301
e 62 301
e 2 301
e 62 97
e 2 97
e 2 62
e 2 62
e 62 301
e 62 97
e 2 301
e 2 97
e 97 301
e 267 278
e 267 278
e 62 300
e 62 300
e 97 267
e 4 97
e 97 298
e 4 267
e 267 298
e 4 298
e 4 298
e 4 97
e 4 267
e 97 298
e 267 298
e 97 267
e 164 298
e 298 303
e 164 303
e 164 303
e 164 298
e 298 303
e 164 304
e 5 164
e 164 301
e 164 305
e 5 304
e 301 304
e 304 305
e 5 301
e 5 305
e 301 305
e 301 305
e 164 301
e 301 304
e 5 301
e 164 305
e 304 305
e 5 305
e 164 304
e 5 164
e 5 304
e 97 306
e 4 97
e 97 278
e 4 306
e 278 306
e 4 278
e 164 303
e 164 303
e 2 146
e 2 97
e 2 144
e 97 146
e 144 146
e 97 144
e 97 144
e 2 97
e 97 146
e 2 144
e 144 146
e 2 146
e 146 146
e 25 144
e 25 27
e 25 299
e 27 144
e 144 299
e 27 299
e 27 299
e 25 27
e 27 144
e 25 299
e 144 299
e 25 144
e 7 144
e 7 9
e 7 299
e 9 144
e 144 299
e 9 299
e 9 299
e 7 9
e 9 144
e 7 299
e 144 299
e 7 144
e 7 9
e 9 144
e 9 299
e 7 144
e 7 299
e 144 299
e 49 144
e 47 49
e 49 299
e 47 144
e 144 299
e 47 299
e 47 299
e 47 49
e 47 144
e 49 299
e 144 299
e 49 144
e 2 56
e 2 15
e 2 57
e 2 97
e 2 51
e 2 183
e 2 5
e 15 56
e 56 57
e 56 97
e 51 56
e 56 183
e 5 56
e 15 57
e 15 97
e 15 51
e 15 183
e 5 15
e 57 97
e 51 57
e 57 183
e 5 57
e 51 97
e 97 183
e 5 97
e 51 183
e 5 51
e 5 183
e 56 307
e 233 307
e 56 233
e 166 308
e 166 307
e 38 166
e 307 308
e 38 308
e 38 307
e 38 307
e 166 307
e 307 308
e 38 166
e 38 308
e 166 308
e 131 183
e 131 309
e 5 131
e 183 309
e 5 183
e 5 309
e 5 309
e 131 309
e 183 309
e 5 131
e 5 183
e 131 183
e 309 310
e 15 309
e 15 310
e 15 310
e 309 310
e 15 309
e 7 310
e 9 310
e 308 310
e 7 9
e 7 308
e 9 308
e 9 308
e 9 310
e 7 9
e 308 310
e 7 308
e 7 310
e 15 57
e 15 51
e 15 58
e 51 57
e 57 58
e 51 58
e 15 131
e 15 58
e 15 72
e 58 131
e 72 131
e 58 72
e 2 190
e 2 51
e 2 311
e 2 97
e 2 5
e 51 190
e 190 311
e 97 190
e 5 190
e 51 311
e 51 97
e 5 51
e 97 311
e 5 311
e 5 97
e 2 311
e 138 311
e 97 311
e 311 312
e 5 311
e 2 138
e 2 97
e 2 312
e 2 5
e 97 138
e 138 312
e 5 138
e 97 312
e 5 97
e 5 312
e 51 313
e 51 58
e 51 314
e 58 313
e 313 314
e 58 314
e 58 314
e 51 58
e 58 313
e 51 314
e 313 314
e 51 313
e 2 51
e 2 58
e 2 97
e 2 57
e 2 5
e 51 58
e 51 97
e 51 57
e 5 51
e 58 97
e 57 58
e 5 58
e 57 97
e 5 97
e 5 57
e 57 97
e 5 97
e 2 97
e 51 97
e 58 97
e 5 57
e 2 57
e 51 57
e 57 58
e 2 5
e 5 51
e 5 58
e 2 51
e 2 58
e 51 58
e 2 51
e 2 97
e 2 315
e 51 97
e 51 315
e 97 315
e 97 315
e 2 97
e 51 97
e 2 315
e 51 315
e 2 51
e 47 315
e 125 315
e 49 315
e 5 315
e 47 125
e 47 49
e 5 47
e 49 125
e 5 125
e 5 49
e 49 125
e 5 125
e 125 315
e 47 125
e 5 49
e 49 315
e 47 49
e 5 315
e 5 47
e 47 315
e 51 63
e 51 56
e 56 63
e 114 316
e 114 139
e 58 114
e 114 317
e 139 316
e 58 316
e 316 317
e 58 139
e 139 317
e 58 317
e 58 139
e 139 317
e 114 139
e 139 316
e 58 317
e 58 114
e 58 316
e 114 317
e 316 317
e 114 316
e 2 154
e 2 97
e 2 86
e 97 154
e 86 154
e 86 97
e 86 97
e 2 97
e 97 154
e 2 86
e 86 154
e 2 154
e 47 154
e 120 154
e 49 154
e 58 154
e 47 120
e 47 49
e 47 58
e 49 120
e 58 120
e 49 58
e 49 120
e 58 120
e 120 154
e 47 120
e 49 58
e 49 154
e 47 49
e 58 154
e 47 58
e 47 154
e 87 153
e 5 87
e 5 153
e 15 87
e 87 318
e 51 87
e 15 318
e 15 51
e 51 318
e 15 318
e 318 319
e 318 320
e 15 319
e 15 320
e 319 320
e 47 319
e 319 321
e 49 319
e 47 321
e 47 49
e 49 321
e 49 321
e 319 321
e 47 321
e 49 319
e 47 49
e 47 319
e 47 321
e 321 322
e 49 321
e 47 322
e 47 49
e 49 322
e 49 322
e 321 322
e 47 322
e 49 321
e 47 49
e 47 321
e 15 87
e 51 87
e 87 323
e 15 51
e 15 323
e 51 323
e 15 323
e 15 324
e 15 38
e 323 324
e 38 323
e 38 324
e 15 324
e 15 325
e 5 15
e 324 325
e 5 324
e 5 325
e 5 325
e 15 325
e 324 325
e 5 15
e 5 324
e 15 324
e 118 325
e 325 326
e 118 326
e 118 326
e 118 325
e 325 326
e 25 327
e 25 56
e 25 27
e 25 36
e 56 327
e 27 327
e 36 327
e 27 56
e 36 56
e 27 36
e 2 12
e 2 328
e 2 97
e 2 327
e 2 5
e 12 328
e 12 97
e 12 327
e 5 12
e 97 328
e 327 328
e 5 328
e 97 327
e 5 97
e 5 327
e 15 329
e 15 210
e 15 110
e 210 329
e 110 329
e 110 210
e 5 329
e 111 329
e 210 329
e 5 111
e 5 210
e 111 210
e 111 210
e 111 329
e 5 111
e 210 329
e 5 210
e 5 329
e 259 312
e 15 259
e 259 330
e 15 312
e 312 330
e 15 330
e 15 259
e 66 259
e 15 66
e 15 134
e 15 54
e 15 15
e 15 58
e 54 134
e 15 134
e 58 134
e 15 54
e 54 58
e 15 58
e 60 331
e 15 331
e 331 332
e 15 60
e 60 332
e 15 332
e 15 332
e 15 54
e 15 190
e 15 58
e 54 332
e 190 332
e 58 332
e 54 190
e 54 58
e 58 190
e 5 97
e 2 97
e 15 97
e 2 5
e 5 15
e 2 15
e 15 333
e 15 334
e 333 334
e 15 334
e 333 334
e 15 333
e 15 334
e 334 335
e 15 335
e 334 335
e 15 335
e 15 334
e 58 336
e 333 336
e 58 333
e 58 333
e 58 336
e 333 336
e 97 103
e 5 97
e 2 97
e 97 103
e 15 97
e 5 103
e 2 103
e 103 103
e 15 103
e 2 5
e 5 103
e 5 15
e 2 103
e 2 15
e 15 103
e 25 337
e 337 338
e 27 337
e 25 338
e 25 27
e 27 338
e 15 338
e 338 339
e 15 339
e 338 339
e 15 339
e 15 338
e 340 341
e 340 341
e 85 340
e 85 340
e 53 55
e 53 142
e 53 342
e 55 142
e 55 342
e 142 342
e 142 342
e 53 142
e 55 142
e 53 342
e 55 342
e 53 55
e 93 342
e 56 342
e 342 343
e 56 93
e 93 343
e 56 343
e 56 343
e 56 342
e 56 93
e 342 343
e 93 343
e 93 342
e 2 104
e 2 344
e 2 97
e 2 341
e 2 5
e 104 344
e 97 104
e 104 341
e 5 104
e 97 344
e 341 344
e 5 344
e 97 341
e 5 97
e 5 341
e 97 341
e 5 97
e 2 97
e 97 104
e 97 344
e 5 341
e 2 341
e 104 341
e 341 344
e 2 5
e 5 104
e 5 344
e 2 104
e 2 344
e 104 344
e 12 343
e 12 337
e 12 84
e 337 343
e 84 343
e 84 337
e 7 339
e 339 345
e 9 339
e 7 345
e 7 9
e 9 345
e 9 345
e 339 345
e 7 345
e 9 339
e 7 9
e 7 339
e 12 345
e 13 345
e 344 345
e 12 13
e 12 344
e 13 344
e 13 344
e 13 345
e 12 13
e 344 345
e 12 344
e 12 345
e 15 346
e 346 347
e 15 347
e 346 347
e 15 347
e 15 346
e 346 346
e 15 348
e 4 15
e 15 72
e 4 348
e 72 348
e 4 72
e 4 72
e 4 15
e 4 348
e 15 72
e 72 348
e 15 348
e 87 120
e 87 131
e 86 87
e 87 348
e 5 87
e 120 131
e 86 120
e 120 348
e 5 120
e 86 131
e 131 348
e 5 131
e 86 348
e 5 86
e 5 348
e 86 348
e 5 86
e 86 87
e 86 120
e 86 131
e 5 348
e 87 348
e 120 348
e 131 348
e 5 87
e 5 120
e 5 131
e 87 120
e 87 131
e 120 131
e 2 15
e 2 57
e 2 349
e 2 4
e 2 154
e 2 51
e 2 38
e 15 57
e 15 349
e 4 15
e 15 154
e 15 51
e 15 38
e 57 349
e 4 57
e 57 154
e 51 57
e 38 57
e 4 349
e 154 349
e 51 349
e 38 349
e 4 154
e 4 51
e 4 38
e 51 154
e 38 154
e 38 51
e 15 120
e 7 15
e 9 15
e 15 349
e 7 120
e 9 120
e 120 349
e 7 9
e 7 349
e 9 349
e 15 105
e 15 107
e 15 110
e 105 107
e 105 110
e 107 110
e 13 15
e 15 78
e 12 15
e 15 88
e 13 78
e 12 13
e 13 88
e 12 78
e 78 88
e 12 88
e 15 350
e 15 302
e 15 287
e 302 350
e 287 350
e 287 302
e 148 351
e 351 352
e 38 351
e 148 352
e 38 148
e 38 352
e 212 353
e 213 353
e 55 353
e 212 213
e 55 212
e 55 213
e 313 313
e 354 355
e 354 354
e 354 355
e 354 355
e 355 355
e 354 355
e 2 15
e 2 356
e 2 179
e 2 5
e 2 38
e 15 356
e 15 179
e 5 15
e 15 38
e 179 356
e 5 356
e 38 356
e 5 179
e 38 179
e 5 38
e 357 358
e 357 358
e 357 359
e 357 359
e 15 359
e 211 359
e 312 359
e 15 211
e 15 312
e 211 312
e 211 312
e 211 359
e 15 211
e 312 359
e 15 312
e 15 359
e 15 360
e 15 361
e 15 362
e 360 361
e 360 362
e 361 362
e 15 363
e 15 364
e 15 365
e 363 364
e 363 365
e 364 365
e 15 363
e 15 366
e 15 367
e 363 366
e 363 367
e 366 367
e 15 368
e 267 368
e 58 368
e 15 267
e 15 58
e 58 267
e 58 267
e 267 368
e 15 267
e 58 368
e 15 58
e 15 368
e 2 369
e 2 97
e 2 370
e 97 369
e 369 370
e 97 370
e 15 370
e 15 368
e 15 82
e 368 370
e 82 370
e 82 368
e 82 368
e 15 368
e 368 370
e 15 82
e 82 370
e 15 370
e 49 92
e 49 52
e 49 56
e 47 49
e 52 92
e 56 92
e 47 92
e 52 56
e 47 52
e 47 56
e 13 15
e 15 371
e 15 372
e 12 15
e 13 371
e 13 372
e 12 13
e 371 372
e 12 371
e 12 372
e 15 372
e 372 373
e 15 373
e 372 373
e 15 373
e 15 372
e 374 375
e 56 374
e 56 375
e 51 375
e 52 375
e 375 376
e 51 52
e 51 376
e 52 376
e 52 376
e 52 375
e 51 52
e 375 376
e 51 376
e 51 375
e 7 373
e 373 374
e 9 373
e 7 374
e 7 9
e 9 374
e 375 377
e 56 377
e 56 375
e 56 375
e 375 377
e 56 377
e 13 15
e 15 371
e 15 378
e 12 15
e 13 371
e 13 378
e 12 13
e 371 378
e 12 371
e 12 378
e 12 378
e 15 378
e 13 378
e 371 378
e 12 15
e 12 13
e 12 371
e 13 15
e 15 371
e 13 371
e 7 379
e 377 379
e 9 379
e 7 377
e 7 9
e 9 377
e 9 377
e 377 379
e 7 377
e 9 379
e 7 9
e 7 379
e 15 380
e 379 380
e 15 379
e 379 380
e 15 379
e 15 380
e 378 380
e 15 378
e 15 380
e 15 380
e 378 380
e 15 378
e 123 381
e 56 123
e 56 381
e 381 382
e 381 383
e 381 384
e 382 383
e 382 384
e 383 384
e 382 384
e 382 383
e 382 385
e 383 384
e 384 385
e 383 385
e 386 387
e 386 388
e 151 386
e 386 389
e 387 388
e 151 387
e 387 389
e 151 388
e 388 389
e 151 389
e 151 388
e 388 389
e 386 388
e 387 388
e 151 389
e 151 386
e 151 387
e 386 389
e 387 389
e 386 387
e 387 389
e 15 389
e 151 389
e 191 389
e 15 387
e 151 387
e 191 387
e 15 151
e 15 191
e 151 191
e 15 151
e 15 191
e 15 389
e 15 387
e 151 191
e 151 389
e 151 387
e 191 389
e 191 387
e 387 389
e 15 390
e 15 290
e 5 15
e 290 390
e 5 390
e 5 290
e 66 290
e 66 259
e 66 78
e 259 290
e 78 290
e 78 259
e 148 195
e 195 352
e 38 195
e 148 352
e 38 148
e 38 352
e 38 352
e 195 352
e 148 352
e 38 195
e 38 148
e 148 195
e 15 391
e 391 392
e 5 391
e 15 392
e 5 15
e 5 392
e 144 352
e 352 391
e 182 352
e 144 391
e 144 182
e 182 391
e 182 391
e 352 391
e 144 391
e 182 352
e 144 182
e 144 352
e 2 393
e 2 97
e 2 258
e 97 393
e 258 393
e 97 258
e 97 258
e 2 97
e 97 393
e 2 258
e 258 393
e 2 393
e 15 394
e 15 86
e 15 38
e 86 394
e 38 394
e 38 86
e 38 86
e 15 86
e 86 394
e 15 38
e 38 394
e 15 394
e 15 38
e 5 15
e 5 38
e 127 355
e 127 127
e 127 355
e 127 355
e 355 355
e 127 355
e 109 166
e 4 166
e 38 166
e 4 109
e 38 109
e 4 38
e 4 38
e 4 166
e 4 109
e 38 166
e 38 109
e 109 166
e 166 395
e 395 396
e 38 395
e 166 396
e 38 166
e 38 396
e 38 396
e 395 396
e 166 396
e 38 395
e 38 166
e 166 395
e 56 397
e 397 398
e 56 398
e 397 398
e 56 398
e 56 397
e 2 398
e 131 398
e 398 399
e 97 398
e 5 398
e 2 131
e 2 399
e 2 97
e 2 5
e 131 399
e 97 131
e 5 131
e 97 399
e 5 399
e 5 97
e 97 399
e 5 399
e 398 399
e 2 399
e 131 399
e 5 97
e 97 398
e 2 97
e 97 131
e 5 398
e 2 5
e 5 131
e 2 398
e 131 398
e 2 131
e 2 400
e 397 400
e 97 400
e 5 400
e 2 397
e 2 97
e 2 5
e 97 397
e 5 397
e 5 97
e 396 399
e 72 399
e 72 396
e 72 396
e 396 399
e 72 399
e 15 166
e 57 166
e 166 401
e 51 166
e 38 166
e 15 57
e 15 401
e 15 51
e 15 38
e 57 401
e 51 57
e 38 57
e 51 401
e 38 401
e 38 51
e 2 402
e 15 402
e 57 402
e 400 402
e 97 402
e 51 402
e 5 402
e 2 15
e 2 57
e 2 400
e 2 97
e 2 51
e 2 5
e 15 57
e 15 400
e 15 97
e 15 51
e 5 15
e 57 400
e 57 97
e 51 57
e 5 57
e 97 400
e 51 400
e 5 400
e 51 97
e 5 97
e 5 51
e 15 403
e 120 403
e 15 120
e 15 120
e 15 403
e 120 403
e 268 396
e 114 268
e 268 403
e 114 396
e 396 403
e 114 403
e 114 403
e 114 268
e 114 396
e 268 403
e 396 403
e 268 396
e 2 401
e 138 401
e 97 401
e 401 404
e 5 401
e 2 138
e 2 97
e 2 404
e 2 5
e 97 138
e 138 404
e 5 138
e 97 404
e 5 97
e 5 404
e 97 404
e 5 97
e 97 401
e 2 97
e 97 138
e 5 404
e 401 404
e 2 404
e 138 404
e 5 401
e 2 5
e 5 138
e 2 401
e 138 401
e 2 138
e 268 404
e 268 402
e 114 268
e 402 404
e 114 404
e 114 402
e 166 210
e 154 166
e 38 166
e 154 210
e 38 210
e 38 154
e 38 154
e 154 166
e 154 210
e 38 166
e 38 210
e 166 210
e 56 405
e 405 406
e 56 406
e 55 93
e 56 93
e 93 407
e 55 56
e 55 407
e 56 407
e 56 407
e 56 93
e 55 56
e 93 407
e 55 407
e 55 93
e 12 407
e 12 13
e 12 84
e 13 407
e 84 407
e 13 84
e 13 84
e 12 13
e 13 407
e 12 84
e 84 407
e 12 407
e 2 104
e 2 55
e 2 97
e 2 5
e 2 89
e 55 104
e 97 104
e 5 104
e 89 104
e 55 97
e 5 55
e 55 89
e 5 97
e 89 97
e 5 89
e 5 97
e 89 97
e 2 97
e 97 104
e 55 97
e 5 89
e 2 5
e 5 104
e 5 55
e 2 89
e 89 104
e 55 89
e 2 104
e 2 55
e 55 104
e 55 408
e 55 56
e 56 408
e 56 408
e 55 408
e 55 56
e 408 408
e 47 408
e 408 409
e 49 408
e 47 409
e 47 49
e 49 409
e 49 409
e 408 409
e 47 409
e 49 408
e 47 49
e 47 408
e 15 409
e 371 409
e 15 371
e 15 371
e 15 409
e 371 409
e 51 371
e 51 52
e 51 410
e 52 371
e 371 410
e 52 410
e 52 410
e 51 52
e 52 371
e 51 410
e 371 410
e 51 371
e 9 408
e 408 409
e 7 408
e 9 409
e 7 9
e 7 409
e 7 409
e 408 409
e 9 409
e 7 408
e 7 9
e 9 408
e 2 411
e 2 97
e 2 412
e 97 411
e 411 412
e 97 412
e 97 412
e 2 97
e 97 411
e 2 412
e 411 412
e 2 411
e 2 412
e 2 25
e 2 38
e 25 412
e 38 412
e 25 38
e 25 38
e 2 25
e 25 412
e 2 38
e 38 412
e 2 412
e 2 110
e 2 97
e 2 264
e 97 110
e 110 264
e 97 264
e 97 264
e 2 97
e 97 110
e 2 264
e 110 264
e 2 110
e 15 180
e 15 331
e 15 108
e 180 331
e 108 180
e 108 331
e 108 331
e 15 331
e 180 331
e 15 108
e 108 180
e 15 180
e 331 413
e 114 413
e 356 413
e 114 331
e 331 356
e 114 356
e 114 356
e 114 413
e 114 331
e 356 413
e 331 356
e 331 413
e 15 414
e 15 66
e 15 259
e 15 415
e 15 138
e 66 414
e 259 414
e 414 415
e 138 414
e 66 259
e 66 415
e 66 138
e 259 415
e 138 259
e 138 415
e 2 159
e 2 416
e 2 38
e 159 416
e 38 159
e 38 416
e 38 416
e 2 416
e 159 416
e 2 38
e 38 159
e 2 159
e 2 416
e 2 386
e 2 97
e 386 416
e 97 416
e 97 386
e 97 386
e 2 386
e 386 416
e 2 97
e 97 416
e 2 416
e 13 60
e 12 60
e 60 417
e 12 13
e 13 417
e 12 417
e 191 417
e 190 417
e 82 417
e 190 191
e 82 191
e 82 190
e 60 114
e 25 418
e 27 418
e 418 419
e 25 27
e 25 419
e 27 419
e 26 419
e 12 26
e 26 420
e 12 419
e 419 420
e 12 420
e 26 60
e 60 421
e 56 60
e 12 60
e 26 421
e 26 56
e 12 26
e 56 421
e 12 421
e 12 56
e 47 421
e 418 421
e 49 421
e 47 418
e 47 49
e 49 418
e 55 60
e 60 297
e 60 142
e 55 297
e 55 142
e 142 297
e 142 297
e 60 297
e 55 297
e 60 142
e 55 142
e 55 60
e 2 279
e 62 279
e 97 279
e 2 62
e 2 97
e 62 97
e 62 97
e 62 279
e 2 62
e 97 279
e 2 97
e 2 279
e 15 60
e 15 15
e 15 58
e 15 55
e 15 60
e 58 60
e 55 60
e 15 58
e 15 55
e 55 58
e 15 58
e 15 55
e 15 15
e 15 60
e 55 58
e 15 58
e 58 60
e 15 55
e 55 60
e 15 60
e 60 191
e 15 60
e 60 190
e 15 191
e 190 191
e 15 190
e 103 422
e 103 259
e 66 103
e 259 422
e 66 422
e 66 259
e 15 423
e 15 424
e 15 425
e 15 426
e 423 424
e 423 425
e 423 426
e 424 425
e 424 426
e 425 426
e 15 424
e 424 427
e 424 426
e 15 427
e 15 426
e 426 427
e 15 425
e 425 427
e 425 426
e 15 427
e 15 426
e 426 427
e 15 427
e 426 427
e 146 427
e 15 426
e 15 146
e 146 426
e 2 428
e 2 97
e 2 429
e 97 428
e 428 429
e 97 429
e 97 429
e 2 97
e 97 428
e 2 429
e 428 429
e 2 428
e 15 430
e 15 431
e 15 432
e 430 431
e 430 432
e 431 432
e 15 431
e 431 433
e 431 432
e 15 433
e 15 432
e 432 433
e 5 243
e 5 209
e 5 434
e 209 243
e 243 434
e 209 434
e 209 434
e 5 209
e 209 243
e 5 434
e 243 434
e 5 243
e 2 243
e 2 97
e 2 435
e 97 243
e 243 435
e 97 435
e 81 136
e 136 138
e 81 138
e 15 136
e 15 54
e 15 15
e 15 58
e 54 136
e 15 136
e 58 136
e 15 54
e 54 58
e 15 58
e 15 54
e 54 58
e 15 54
e 54 136
e 15 58
e 15 15
e 15 136
e 15 58
e 58 136
e 15 136
e 81 138
e 81 136
e 136 138
e 15 436
e 56 436
e 436 437
e 58 436
e 15 56
e 15 437
e 15 58
e 56 437
e 56 58
e 58 437
e 47 434
e 47 438
e 47 49
e 434 438
e 49 434
e 49 438
e 49 438
e 47 438
e 434 438
e 47 49
e 49 434
e 47 434
e 15 438
e 436 438
e 15 436
e 436 438
e 15 436
e 15 438
e 2 435
e 2 97
e 2 428
e 97 435
e 428 435
e 97 428
e 66 165
e 165 439
e 38 165
e 66 439
e 38 66
e 38 439
e 38 439
e 165 439
e 66 439
e 38 165
e 38 66
e 66 165
e 15 439
e 15 51
e 15 440
e 51 439
e 439 440
e 51 440
e 51 440
e 15 51
e 51 439
e 15 440
e 439 440
e 15 439
e 235 441
e 15 235
e 235 245
e 235 442
e 15 441
e 245 441
e 441 442
e 15 245
e 15 442
e 245 442
e 235 387
e 15 235
e 235 245
e 151 235
e 15 387
e 245 387
e 151 387
e 15 245
e 15 151
e 151 245
e 149 235
e 15 235
e 235 245
e 151 235
e 15 149
e 149 245
e 149 151
e 15 245
e 15 151
e 151 245
e 2 235
e 2 97
e 2 275
e 97 235
e 235 275
e 97 275
e 97 275
e 2 97
e 97 235
e 2 275
e 235 275
e 2 235
e 2 233
e 2 97
e 2 235
e 97 233
e 233 235
e 97 235
e 97 235
e 2 97
e 97 233
e 2 235
e 233 235
e 2 233
e 47 189
e 47 443
e 47 49
e 189 443
e 49 189
e 49 443
e 49 443
e 47 443
e 189 443
e 47 49
e 49 189
e 47 189
e 15 443
e 443 444
e 15 444
e 443 444
e 15 444
e 15 443
e 15 444
e 141 444
e 56 444
e 58 444
e 15 141
e 15 56
e 15 58
e 56 141
e 58 141
e 56 58
e 189 209
e 203 209
e 5 209
e 189 203
e 5 189
e 5 203
e 5 203
e 203 209
e 189 203
e 5 209
e 5 189
e 189 209
e 2 193
e 2 97
e 2 233
e 97 193
e 193 233
e 97 233
e 2 57
e 2 275
e 2 97
e 2 148
e 2 51
e 2 5
e 57 275
e 57 97
e 57 148
e 51 57
e 5 57
e 97 275
e 148 275
e 51 275
e 5 275
e 97 148
e 51 97
e 5 97
e 51 148
e 5 148
e 5 51
e 2 58
e 2 275
e 2 97
e 2 148
e 2 5
e 58 275
e 58 97
e 58 148
e 5 58
e 97 275
e 148 275
e 5 275
e 97 148
e 5 97
e 5 148
e 97 148
e 5 97
e 2 97
e 58 97
e 97 275
e 5 148
e 2 148
e 58 148
e 148 275
e 2 5
e 5 58
e 5 275
e 2 58
e 2 275
e 58 275
e 55 410
e 142 410
e 371 410
e 55 142
e 55 371
e 142 371
e 142 371
e 142 410
e 55 142
e 371 410
e 55 371
e 55 410
e 93 371
e 56 371
e 371 445
e 56 93
e 93 445
e 56 445
e 56 445
e 56 371
e 56 93
e 371 445
e 93 445
e 93 371
e 25 446
e 25 27
e 25 447
e 27 446
e 446 447
e 27 447
e 15 448
e 448 449
e 12 448
e 15 449
e 12 15
e 12 449
e 12 449
e 448 449
e 15 449
e 12 448
e 12 15
e 15 448
e 7 449
e 449 450
e 9 449
e 7 450
e 7 9
e 9 450
e 9 450
e 449 450
e 7 450
e 9 449
e 7 9
e 7 449
e 15 447
e 15 448
e 447 448
e 12 450
e 7 450
e 56 450
e 9 450
e 344 450
e 7 12
e 12 56
e 9 12
e 12 344
e 7 56
e 7 9
e 7 344
e 9 56
e 56 344
e 9 344
e 9 56
e 56 344
e 56 450
e 12 56
e 7 56
e 9 344
e 9 450
e 9 12
e 7 9
e 344 450
e 12 344
e 7 344
e 12 450
e 7 450
e 7 12
e 12 445
e 12 84
e 12 446
e 84 445
e 445 446
e 84 446
e 103 451
e 103 103
e 103 451
e 103 451
e 451 451
e 103 451
e 15 452
e 15 349
e 15 453
e 349 452
e 452 453
e 349 453
