CliquerOutput/bio-celegans-dir.out
size=9, weight=9:   2 5 15 51 55 56 57 58 97
